29 = ndim
28 = nblocks
6 6 6 6 6 6 6 1 1 1 1 1 1 1 1 1 1 1 1 1 1 1 1 1 1 1 1 1 = blockstruct
0.0, 0.0, 0.0, 0.0, 0.0, 0.0, 0.0, 0.0, 0.0, 0.0, 0.0, 0.0, 0.0, 0.0, 0.0, 0.0, 0.0, 0.0, 0.0, 0.0, 0.0, 0.0, 0.0, 0.0, 0.0, 0.0, 0.0, 0.0, 0.0 = objcoeffs
0 1 3 3 -0.17131293575814688
0 2 1 1 -3.467428699735981
0 2 1 2 0.2964085453639811
0 2 1 3 -0.2140077916562797
0 2 1 6 -7.966345996391897
0 2 2 3 -0.3785550069142394
0 2 2 6 0.07806327012568182
0 2 3 3 -3.460559644738751
0 2 3 4 7.966345996391897
0 2 3 5 -0.07806327012568182
0 3 1 1 0.3100866126565567
0 3 1 2 -0.09536481345213788
0 3 1 3 0.3304099525917161
0 3 1 6 0.082408203579443
0 3 2 3 0.09564325960044062
0 3 2 6 0.005404542621841646
0 3 3 3 -0.014396818326787297
0 3 3 4 -0.082408203579443
0 3 3 5 -0.005404542621841646
0 4 1 1 -1.6599837793676144
0 4 1 2 -0.13401123340633192
0 4 1 3 0.03757899699674794
0 4 1 6 -3.4721123209605724
0 4 2 3 0.11409157226118316
0 4 2 6 0.025165140844855882
0 4 3 3 -1.5389930629944377
0 4 3 4 3.4721123209605724
0 4 3 5 -0.025165140844855882
0 5 1 1 -0.10195982042274843
0 5 1 2 -0.08334406565558075
0 5 1 3 -0.01485146917214912
0 5 1 6 -0.010552829297320612
0 5 2 3 0.02712318587984608
0 5 2 6 0.007706899548225857
0 5 3 3 -0.010334613865982445
0 5 3 4 0.010552829297320612
0 5 3 5 -0.007706899548225857
0 6 1 1 -0.2081856623704741
0 6 1 2 0.0035788536782362657
0 6 1 3 0.03451802164072663
0 6 1 6 -0.6255254861108657
0 6 2 3 -0.05007663733942249
0 6 2 6 -0.02296542093292179
0 6 3 3 -0.19431254644768647
0 6 3 4 0.6255254861108657
0 6 3 5 0.02296542093292179
0 7 1 1 0.027235297961057062
0 7 1 2 0.015139034994703043
0 7 1 3 -0.009175134351791504
0 7 1 6 0.02512854428073334
0 7 2 3 0.019363491125089925
0 7 2 6 0.007913966801328737
0 7 3 3 -3.624804523896796e-05
0 7 3 4 -0.02512854428073334
0 7 3 5 -0.007913966801328737
0 9 1 1 -0.32478933436688884
0 10 1 1 -1.2178020509968797
0 12 1 1 -1.2344124759953203
0 13 1 1 -0.9628803674003419
0 14 1 1 0.04840078220481159
0 15 1 1 -0.07249870216987286
0 16 1 1 -0.7195622462822044
0 17 1 1 0.6132120738745985
0 18 1 1 -0.37747130872012946
0 19 1 1 -0.42726520175974836
0 20 1 1 -0.0006713668478054435
0 21 1 1 -0.10392497461090533
0 22 1 1 -0.3384361056607219
0 23 1 1 0.15541457275220777
0 24 1 1 -0.04921859077737983
0 25 1 1 -0.408863359470228
0 26 1 1 0.016874258261197775
0 27 1 1 -0.18679202061487127
0 28 1 1 -0.2806161650133325
1 1 1 1 1.0
2 1 1 2 1.0
3 1 1 3 1.0
4 1 2 2 1.0
5 1 2 3 1.0
6 1 2 6 1.0
6 1 3 5 -1.0
7 1 1 6 -1.0
7 1 3 4 1.0
8 1 1 5 1.0
8 1 2 4 -1.0
9 1 4 4 1.0
9 1 5 5 1.0
9 1 6 6 1.0
10 1 3 3 -1.0
10 8 1 1 1.0
11 1 3 3 -1.0
11 2 1 1 1.0
11 2 2 2 1.0
12 2 1 5 1.0
12 2 2 4 -1.0
13 2 4 4 1.0
13 2 5 5 1.0
13 2 6 6 1.0
14 2 3 3 -1.0
14 11 1 1 1.0
15 2 1 1 -1.0
15 2 3 3 -1.0
15 3 1 1 1.0
15 3 2 2 1.0
16 2 1 1 -0.875
16 2 1 6 -1.0
16 2 3 3 -0.875
16 2 3 4 1.0
16 3 1 5 1.0
16 3 2 4 -1.0
17 2 1 1 -0.19140625
17 2 1 6 -0.4375
17 2 3 3 -0.19140625
17 2 3 4 0.4375
17 3 4 4 1.0
17 3 5 5 1.0
17 3 6 6 1.0
18 3 1 1 -1.0
18 3 3 3 -1.0
18 4 1 1 1.0
18 4 2 2 1.0
19 3 1 6 1.0
19 3 3 4 -1.0
19 4 1 5 1.0
19 4 2 4 -1.0
20 2 1 1 -0.19140625
20 2 1 6 -0.4375
20 2 3 3 -0.19140625
20 2 3 4 0.4375
20 4 4 4 1.0
20 4 5 5 1.0
20 4 6 6 1.0
21 4 1 1 -1.0
21 4 3 3 -1.0
21 5 1 1 1.0
21 5 2 2 1.0
22 4 1 1 -0.825
22 4 1 6 -1.0
22 4 3 3 -0.825
22 4 3 4 1.0
22 5 1 5 1.0
22 5 2 4 -1.0
23 2 1 1 -0.19140625
23 2 1 6 -0.4375
23 2 3 3 -0.19140625
23 2 3 4 0.4375
23 4 1 1 -0.17015625
23 4 1 6 -0.4125
23 4 3 3 -0.17015625
23 4 3 4 0.4125
23 5 4 4 1.0
23 5 5 5 1.0
23 5 6 6 1.0
24 5 1 1 -1.0
24 5 3 3 -1.0
24 6 1 1 1.0
24 6 2 2 1.0
25 5 1 6 1.0
25 5 3 4 -1.0
25 6 1 5 1.0
25 6 2 4 -1.0
26 2 1 1 -0.19140625
26 2 1 6 -0.4375
26 2 3 3 -0.19140625
26 2 3 4 0.4375
26 4 1 1 -0.17015625
26 4 1 6 -0.4125
26 4 3 3 -0.17015625
26 4 3 4 0.4125
26 6 4 4 1.0
26 6 5 5 1.0
26 6 6 6 1.0
27 6 1 1 -1.0
27 6 3 3 -1.0
27 7 1 1 1.0
27 7 2 2 1.0
28 6 1 1 -0.551
28 6 1 6 -1.0
28 6 3 3 -0.551
28 6 3 4 1.0
28 7 1 5 1.0
28 7 2 4 -1.0
29 2 1 1 -0.19140625
29 2 1 6 -0.4375
29 2 3 3 -0.19140625
29 2 3 4 0.4375
29 4 1 1 -0.17015625
29 4 1 6 -0.4125
29 4 3 3 -0.17015625
29 4 3 4 0.4125
29 6 1 1 -0.07590025
29 6 1 6 -0.2755
29 6 3 3 -0.07590025
29 6 3 4 0.2755
29 7 4 4 1.0
29 7 5 5 1.0
29 7 6 6 1.0
